7655475585025460345014,11,1,2,04,4,1,2,011,13,1,2,013,13,1,2,02,3,1,2,09,1,1,2,07,6,1,2,08,2,1,2,05,13,1,2,014,13,1,2,06,11,1,2,03,3,1,2,08,5,1,2,08,2,1,2,011,12,1,2,012,12,1,2,05,8,1,2,06,11,1,2,03,6,1,2,02,4,1,2,012,10,1,2,011,10,1,2,01,15,1,2,02,2,1,2,09,5,1,2,06,13,1,2,08,3,1,2,07,9,1,2,03,4,1,2,07,14,1,2,07,10,1,2,05,2,1,2,013,2,1,2,010,2,1,2,011,14,1,2,05,11,1,2,011,14,1,2,05,14,1,2,011,2,1,2,08,13,1,2,03,6,1,2,08,3,1,2,05,3,1,2,014,6,1,2,08,12,1,2,014,14,1,2,014,8,1,2,05,5,1,2,03,12,1,2,03,13,1,2,0